problem_generation/data/GISP/train/er_n=63_m=1180_p=0.60_SET2_setparam=100.00_alpha=0.50_125.lp
maximize
OBJ:100x0 + 100x1 + 100x2 + 100x3 + 100x4 + 100x5 + 100x6 + 100x7 + 100x8 + 100x9 + 100x10 + 100x11 + 100x12 + 100x13 + 100x14 + 100x15 + 100x16 + 100x17 + 100x18 + 100x19 + 100x20 + 100x21 + 100x22 + 100x23 + 100x24 + 100x25 + 100x26 + 100x27 + 100x28 + 100x29 + 100x30 + 100x31 + 100x32 + 100x33 + 100x34 + 100x35 + 100x36 + 100x37 + 100x38 + 100x39 + 100x40 + 100x41 + 100x42 + 100x43 + 100x44 + 100x45 + 100x46 + 100x47 + 100x48 + 100x49 + 100x50 + 100x51 + 100x52 + 100x53 + 100x54 + 100x55 + 100x56 + 100x57 + 100x58 + 100x59 + 100x60 + 100x61 + 100x62 - y7_17 - y36_62 - y15_39 - y7_35 - y48_54 - y40_50 - y10_27 - y41_51 - y2_32 - y10_45 - y2_41 - y25_43 - y2_50 - y2_59 - y3_24 - y14_24 - y22_37 - y15_16 - y7_12 - y47_57 - y28_53 - y29_36 - y48_49 - y6_43 - y29_45 - y29_54 - y40_54 - y21_50 - y10_31 - y33_42 - y2_36 - y25_38 - y25_47 - y22_23 - y14_19 - y14_28 - y14_37 - y28_39 - y47_52 - y36_61 - y5_55 - y9_53 - y9_62 - y6_47 - y40_58 - y54_60 - y25_33 - y10_44 - y25_42 - y3_5 - y32_41 - y13_46 - y13_55 - y24_55 - y14_32 - y16_60 - y17_25 - y36_47 - y9_30 - y5_41 - y9_39 - y5_50 - y17_52 - y5_59 - y6_42 - y40_44 - y10_12 - y20_53 - y31_53 - y54_55 - y20_62 - y25_28 - y13_41 - y24_41 - y32_54 - y35_41 - y1_48 - y24_59 - y35_59 - y28_29 - y36_42 - y28_47 - y28_56 - y50_62 - y39_52 - y2_12 - y39_61 - y12_44 - y23_53 - y51_53 - y13_36 - y24_36 - y32_49 - y24_45 - y35_45 - y43_58 - y1_61 - y36_37 - y5_40 - y17_42 - y6_32 - y8_51 - y21_30 - y19_60 - y31_34 - y2_7 - y12_57 - y13_22 - y23_57 - y32_35 - y24_31 - y1_38 - y13_40 - y13_49 - y35_49 - y16_54 - y17_28 - y17_37 - y27_41 - y6_18 - y8_46 - y19_46 - y30_46 - y50_61 - y8_55 - y30_55 - y0_60 - y11_60 - y12_25 - y39_51 - y23_34 - y23_52 - y13_17 - y23_61 - y53_62 - y32_39 - y16_22 - y13_35 - y24_35 - y13_44 - y5_12 - y5_21 - y17_23 - y15_53 - y38_55 - y49_55 - y15_62 - y26_62 - y5_39 - y7_58 - y18_58 - y19_32 - y8_41 - y30_41 - y27_54 - y0_55 - y31_33 - y23_29 - y20_42 - y31_42 - y4_43 - y16_26 - y1_37 - y1_46 - y5_7 - y46_54 - y15_48 - y26_48 - y26_57 - y18_53 - y27_31 - y8_36 - y19_45 - y11_41 - y30_54 - y11_50 - y4_11 - y0_59 - y11_59 - y12_24 - y23_24 - y23_42 - y34_39 - y13_16 - y4_47 - y34_48 - y24_25 - y37_44 - y56_57 - y15_43 - y26_43 - y46_58 - y7_39 - y18_39 - y15_52 - y15_61 - y26_61 - y8_31 - y27_44 - y8_40 - y0_36 - y11_36 - y8_49 - y30_49 - y11_45 - y30_58 - y4_6 - y0_54 - y41_55 - y31_32 - y33_51 - y4_24 - y23_37 - y4_33 - y22_41 - y34_43 - y53_56 - y37_39 - y22_50 - y15_20 - y7_25 - y18_25 - y18_34 - y7_43 - y18_52 - y19_26 - y30_35 - y0_31 - y33_46 - y41_59 - y4_19 - y10_53 - y4_28 - y22_45 - y34_47 - y3_41 - y37_43 - y45_56 - y15_33 - y18_29 - y7_38 - y15_51 - y26_51 - y7_47 - y18_47 - y7_56 - y0_17 - y29_53 - y29_62 - y11_35 - y2_44 - y25_46 - y2_53 - y3_36 - y22_49 - y34_51 - y37_47 - y3_54 - y14_54 - y15_19 - y37_56 - y15_28 - y26_28 - y47_60 - y15_37 - y26_37 - y26_46 - y29_39 - y11_12 - y29_48 - y48_61 - y6_55 - y21_53 - y10_34 - y33_36 - y33_45 - y44_45 - y3_13 - y10_61 - y22_26 - y51_62 - y34_37 - y14_31 - y3_40 - y14_40 - y22_53 - y3_49 - y55_59 - y36_55 - y29_43 - y21_39 - y6_50 - y29_61 - y10_29 - y2_25 - y25_36 - y33_49 - y51_57 - y3_17 - y3_26 - y22_39 - y13_58 - y3_35 - y14_35 - y15_18 - y7_14 - y17_46 - y47_59 - y9_42 - y59_61 - y6_27 - y0_2 - y6_36 - y21_34 - y6_45 - y21_52 - y21_61 - y33_35 - y2_38 - y10_51 - y51_52 - y32_48 - y22_25 - y51_61 - y3_21 - y14_21 - y1_60 - y13_62 - y16_58 - y17_32 - y28_32 - y17_41 - y28_50 - y9_46 - y17_59 - y6_31 - y29_33 - y21_29 - y40_51 - y21_47 - y6_58 - y10_28 - y25_26 - y25_35 - y32_34 - y32_43 - y51_56 - y35_39 - y3_16 - y43_52 - y24_48 - y35_48 - y43_61 - y24_57 - y17_18 - y17_27 - y6_8 - y36_58 - y17_54 - y21_24 - y6_35 - y21_33 - y6_44 - y39_50 - y2_10 - y31_46 - y39_59 - y54_57 - y2_37 - y4_56 - y13_34 - y24_34 - y3_11 - y43_47 - y24_43 - y32_56 - y16_39 - y43_56 - y1_50 - y13_52 - y24_61 - y16_57 - y5_20 - y17_22 - y17_31 - y28_31 - y17_40 - y28_49 - y6_12 - y9_45 - y42_51 - y19_58 - y20_41 - y10_18 - y39_54 - y2_14 - y12_46 - y2_23 - y20_59 - y54_61 - y23_55 - y13_20 - y4_51 - y32_33 - y13_29 - y24_29 - y32_42 - y51_55 - y13_38 - y32_51 - y16_34 - y1_45 - y24_47 - y35_47 - y35_56 - y9_22 - y9_31 - y28_44 - y6_7 - y9_40 - y5_51 - y27_57 - y19_62 - y11_58 - y10_13 - y39_58 - y31_54 - y4_46 - y12_59 - y24_33 - y1_40 - y35_42 - y24_51 - y1_58 - y38_44 - y5_19 - y9_17 - y5_28 - y28_30 - y26_60 - y49_62 - y5_37 - y27_34 - y27_43 - y6_20 - y19_39 - y19_48 - y42_50 - y0_44 - y19_57 - y11_53 - y12_18 - y20_31 - y23_27 - y39_53 - y23_45 - y12_54 - y53_55 - y16_24 - y34_60 - y1_35 - y45_60 - y16_33 - y15_55 - y26_55 - y18_51 - y8_25 - y8_34 - y19_34 - y27_47 - y0_30 - y30_34 - y8_43 - y8_52 - y19_52 - y42_54 - y11_48 - y12_49 - y1_12 - y45_46 - y1_21 - y4_54 - y1_30 - y1_39 - y3_58 - y14_58 - y38_52 - y49_52 - y18_46 - y7_55 - y8_20 - y19_29 - y11_25 - y19_38 - y30_38 - y27_51 - y0_34 - y30_47 - y0_52 - y11_52 - y52_53 - y20_30 - y11_61 - y12_26 - y31_39 - y4_22 - y33_58 - y34_41 - y53_54 - y34_50 - y45_50 - y16_23 - y15_36 - y26_36 - y5_13 - y26_45 - y38_47 - y26_54 - y18_50 - y0_11 - y48_60 - y19_33 - y30_33 - y0_29 - y19_42 - y20_25 - y60_61 - y44_62 - y1_2 - y22_43 - y34_45 - y37_41 - y34_54 - y45_54 - y3_48 - y37_50 - y37_59 - y26_31 - y7_27 - y37_49 - y7_36 - y15_49 - y8_10 - y0_6 - y8_37 - y19_37 - y30_37 - y0_33 - y11_33 - y11_42 - y41_43 - y33_39 - y41_52 - y10_46 - y52_61 - y25_44 - y10_55 - y2_51 - y1_6 - y2_60 - y22_38 - y22_47 - y45_49 - y56_58 - y3_52 - y15_17 - y18_22 - y59_60 - y15_35 - y18_49 - y40_46 - y19_23 - y48_59 - y0_19 - y21_60 - y4_7 - y10_41 - y52_56 - y4_16 - y10_50 - y33_52 - y10_59 - y25_57 - y3_38 - y14_38 - y22_51 - y37_40 - y14_47 - y3_56
 Subject to
C1: x0+x2-y0_2 <=1 
C2: x0+x4 <=1 
C3: x0+x6-y0_6 <=1 
C4: x0+x9 <=1 
C5: x0+x11-y0_11 <=1 
C6: x0+x12 <=1 
C7: x0+x16 <=1 
C8: x0+x17-y0_17 <=1 
C9: x0+x18 <=1 
C10: x0+x19-y0_19 <=1 
C11: x0+x20 <=1 
C12: x0+x22 <=1 
C13: x0+x24 <=1 
C14: x0+x25 <=1 
C15: x0+x29-y0_29 <=1 
C16: x0+x30-y0_30 <=1 
C17: x0+x31-y0_31 <=1 
C18: x0+x33-y0_33 <=1 
C19: x0+x34-y0_34 <=1 
C20: x0+x35 <=1 
C21: x0+x36-y0_36 <=1 
C22: x0+x37 <=1 
C23: x0+x40 <=1 
C24: x0+x44-y0_44 <=1 
C25: x0+x45 <=1 
C26: x0+x49 <=1 
C27: x0+x50 <=1 
C28: x0+x52-y0_52 <=1 
C29: x0+x54-y0_54 <=1 
C30: x0+x55-y0_55 <=1 
C31: x0+x57 <=1 
C32: x0+x58 <=1 
C33: x0+x59-y0_59 <=1 
C34: x0+x60-y0_60 <=1 
C35: x0+x61 <=1 
C36: x1+x2-y1_2 <=1 
C37: x1+x3 <=1 
C38: x1+x4 <=1 
C39: x1+x6-y1_6 <=1 
C40: x1+x7 <=1 
C41: x1+x8 <=1 
C42: x1+x11 <=1 
C43: x1+x12-y1_12 <=1 
C44: x1+x13 <=1 
C45: x1+x14 <=1 
C46: x1+x17 <=1 
C47: x1+x18 <=1 
C48: x1+x19 <=1 
C49: x1+x21-y1_21 <=1 
C50: x1+x23 <=1 
C51: x1+x28 <=1 
C52: x1+x29 <=1 
C53: x1+x30-y1_30 <=1 
C54: x1+x31 <=1 
C55: x1+x34 <=1 
C56: x1+x35-y1_35 <=1 
C57: x1+x37-y1_37 <=1 
C58: x1+x38-y1_38 <=1 
C59: x1+x39-y1_39 <=1 
C60: x1+x40-y1_40 <=1 
C61: x1+x42 <=1 
C62: x1+x45-y1_45 <=1 
C63: x1+x46-y1_46 <=1 
C64: x1+x48-y1_48 <=1 
C65: x1+x49 <=1 
C66: x1+x50-y1_50 <=1 
C67: x1+x51 <=1 
C68: x1+x52 <=1 
C69: x1+x54 <=1 
C70: x1+x55 <=1 
C71: x1+x57 <=1 
C72: x1+x58-y1_58 <=1 
C73: x1+x60-y1_60 <=1 
C74: x1+x61-y1_61 <=1 
C75: x2+x4 <=1 
C76: x2+x6 <=1 
C77: x2+x7-y2_7 <=1 
C78: x2+x8 <=1 
C79: x2+x10-y2_10 <=1 
C80: x2+x11 <=1 
C81: x2+x12-y2_12 <=1 
C82: x2+x13 <=1 
C83: x2+x14-y2_14 <=1 
C84: x2+x15 <=1 
C85: x2+x19 <=1 
C86: x2+x20 <=1 
C87: x2+x22 <=1 
C88: x2+x23-y2_23 <=1 
C89: x2+x24 <=1 
C90: x2+x25-y2_25 <=1 
C91: x2+x27 <=1 
C92: x2+x28 <=1 
C93: x2+x29 <=1 
C94: x2+x32-y2_32 <=1 
C95: x2+x33 <=1 
C96: x2+x35 <=1 
C97: x2+x36-y2_36 <=1 
C98: x2+x37-y2_37 <=1 
C99: x2+x38-y2_38 <=1 
C100: x2+x41-y2_41 <=1 
C101: x2+x43 <=1 
C102: x2+x44-y2_44 <=1 
C103: x2+x46 <=1 
C104: x2+x47 <=1 
C105: x2+x50-y2_50 <=1 
C106: x2+x51-y2_51 <=1 
C107: x2+x52 <=1 
C108: x2+x53-y2_53 <=1 
C109: x2+x57 <=1 
C110: x2+x59-y2_59 <=1 
C111: x2+x60-y2_60 <=1 
C112: x2+x62 <=1 
C113: x3+x4 <=1 
C114: x3+x5-y3_5 <=1 
C115: x3+x7 <=1 
C116: x3+x8 <=1 
C117: x3+x11-y3_11 <=1 
C118: x3+x13-y3_13 <=1 
C119: x3+x15 <=1 
C120: x3+x16-y3_16 <=1 
C121: x3+x17-y3_17 <=1 
C122: x3+x18 <=1 
C123: x3+x20 <=1 
C124: x3+x21-y3_21 <=1 
C125: x3+x23 <=1 
C126: x3+x24-y3_24 <=1 
C127: x3+x26-y3_26 <=1 
C128: x3+x28 <=1 
C129: x3+x29 <=1 
C130: x3+x31 <=1 
C131: x3+x35-y3_35 <=1 
C132: x3+x36-y3_36 <=1 
C133: x3+x38-y3_38 <=1 
C134: x3+x40-y3_40 <=1 
C135: x3+x41-y3_41 <=1 
C136: x3+x42 <=1 
C137: x3+x43 <=1 
C138: x3+x47 <=1 
C139: x3+x48-y3_48 <=1 
C140: x3+x49-y3_49 <=1 
C141: x3+x50 <=1 
C142: x3+x52-y3_52 <=1 
C143: x3+x54-y3_54 <=1 
C144: x3+x56-y3_56 <=1 
C145: x3+x58-y3_58 <=1 
C146: x4+x5 <=1 
C147: x4+x6-y4_6 <=1 
C148: x4+x7-y4_7 <=1 
C149: x4+x11-y4_11 <=1 
C150: x4+x12 <=1 
C151: x4+x13 <=1 
C152: x4+x15 <=1 
C153: x4+x16-y4_16 <=1 
C154: x4+x18 <=1 
C155: x4+x19-y4_19 <=1 
C156: x4+x22-y4_22 <=1 
C157: x4+x24-y4_24 <=1 
C158: x4+x28-y4_28 <=1 
C159: x4+x29 <=1 
C160: x4+x31 <=1 
C161: x4+x33-y4_33 <=1 
C162: x4+x39 <=1 
C163: x4+x40 <=1 
C164: x4+x43-y4_43 <=1 
C165: x4+x44 <=1 
C166: x4+x46-y4_46 <=1 
C167: x4+x47-y4_47 <=1 
C168: x4+x49 <=1 
C169: x4+x50 <=1 
C170: x4+x51-y4_51 <=1 
C171: x4+x52 <=1 
C172: x4+x54-y4_54 <=1 
C173: x4+x56-y4_56 <=1 
C174: x4+x58 <=1 
C175: x4+x59 <=1 
C176: x4+x61 <=1 
C177: x5+x7-y5_7 <=1 
C178: x5+x10 <=1 
C179: x5+x12-y5_12 <=1 
C180: x5+x13-y5_13 <=1 
C181: x5+x16 <=1 
C182: x5+x19-y5_19 <=1 
C183: x5+x20-y5_20 <=1 
C184: x5+x21-y5_21 <=1 
C185: x5+x23 <=1 
C186: x5+x27 <=1 
C187: x5+x28-y5_28 <=1 
C188: x5+x29 <=1 
C189: x5+x32 <=1 
C190: x5+x33 <=1 
C191: x5+x36 <=1 
C192: x5+x37-y5_37 <=1 
C193: x5+x38 <=1 
C194: x5+x39-y5_39 <=1 
C195: x5+x40-y5_40 <=1 
C196: x5+x41-y5_41 <=1 
C197: x5+x42 <=1 
C198: x5+x44 <=1 
C199: x5+x50-y5_50 <=1 
C200: x5+x51-y5_51 <=1 
C201: x5+x52 <=1 
C202: x5+x54 <=1 
C203: x5+x55-y5_55 <=1 
C204: x5+x57 <=1 
C205: x5+x59-y5_59 <=1 
C206: x5+x62 <=1 
C207: x6+x7-y6_7 <=1 
C208: x6+x8-y6_8 <=1 
C209: x6+x11 <=1 
C210: x6+x12-y6_12 <=1 
C211: x6+x14 <=1 
C212: x6+x15 <=1 
C213: x6+x17 <=1 
C214: x6+x18-y6_18 <=1 
C215: x6+x20-y6_20 <=1 
C216: x6+x25 <=1 
C217: x6+x27-y6_27 <=1 
C218: x6+x30 <=1 
C219: x6+x31-y6_31 <=1 
C220: x6+x32-y6_32 <=1 
C221: x6+x35-y6_35 <=1 
C222: x6+x36-y6_36 <=1 
C223: x6+x39 <=1 
C224: x6+x40 <=1 
C225: x6+x41 <=1 
C226: x6+x42-y6_42 <=1 
C227: x6+x43-y6_43 <=1 
C228: x6+x44-y6_44 <=1 
C229: x6+x45-y6_45 <=1 
C230: x6+x46 <=1 
C231: x6+x47-y6_47 <=1 
C232: x6+x48 <=1 
C233: x6+x50-y6_50 <=1 
C234: x6+x54 <=1 
C235: x6+x55-y6_55 <=1 
C236: x6+x56 <=1 
C237: x6+x58-y6_58 <=1 
C238: x6+x60 <=1 
C239: x6+x62 <=1 
C240: x7+x9 <=1 
C241: x7+x11 <=1 
C242: x7+x12-y7_12 <=1 
C243: x7+x14-y7_14 <=1 
C244: x7+x17-y7_17 <=1 
C245: x7+x18 <=1 
C246: x7+x21 <=1 
C247: x7+x22 <=1 
C248: x7+x25-y7_25 <=1 
C249: x7+x27-y7_27 <=1 
C250: x7+x29 <=1 
C251: x7+x32 <=1 
C252: x7+x35-y7_35 <=1 
C253: x7+x36-y7_36 <=1 
C254: x7+x37 <=1 
C255: x7+x38-y7_38 <=1 
C256: x7+x39-y7_39 <=1 
C257: x7+x40 <=1 
C258: x7+x41 <=1 
C259: x7+x43-y7_43 <=1 
C260: x7+x44 <=1 
C261: x7+x47-y7_47 <=1 
C262: x7+x49 <=1 
C263: x7+x51 <=1 
C264: x7+x53 <=1 
C265: x7+x55-y7_55 <=1 
C266: x7+x56-y7_56 <=1 
C267: x7+x57 <=1 
C268: x7+x58-y7_58 <=1 
C269: x7+x61 <=1 
C270: x8+x10-y8_10 <=1 
C271: x8+x13 <=1 
C272: x8+x14 <=1 
C273: x8+x16 <=1 
C274: x8+x17 <=1 
C275: x8+x18 <=1 
C276: x8+x20-y8_20 <=1 
C277: x8+x25-y8_25 <=1 
C278: x8+x26 <=1 
C279: x8+x30 <=1 
C280: x8+x31-y8_31 <=1 
C281: x8+x34-y8_34 <=1 
C282: x8+x35 <=1 
C283: x8+x36-y8_36 <=1 
C284: x8+x37-y8_37 <=1 
C285: x8+x38 <=1 
C286: x8+x40-y8_40 <=1 
C287: x8+x41-y8_41 <=1 
C288: x8+x43-y8_43 <=1 
C289: x8+x44 <=1 
C290: x8+x45 <=1 
C291: x8+x46-y8_46 <=1 
C292: x8+x47 <=1 
C293: x8+x49-y8_49 <=1 
C294: x8+x50 <=1 
C295: x8+x51-y8_51 <=1 
C296: x8+x52-y8_52 <=1 
C297: x8+x54 <=1 
C298: x8+x55-y8_55 <=1 
C299: x8+x56 <=1 
C300: x8+x57 <=1 
C301: x8+x60 <=1 
C302: x8+x61 <=1 
C303: x8+x62 <=1 
C304: x9+x10 <=1 
C305: x9+x11 <=1 
C306: x9+x12 <=1 
C307: x9+x13 <=1 
C308: x9+x14 <=1 
C309: x9+x16 <=1 
C310: x9+x17-y9_17 <=1 
C311: x9+x20 <=1 
C312: x9+x21 <=1 
C313: x9+x22-y9_22 <=1 
C314: x9+x30-y9_30 <=1 
C315: x9+x31-y9_31 <=1 
C316: x9+x32 <=1 
C317: x9+x33 <=1 
C318: x9+x34 <=1 
C319: x9+x36 <=1 
C320: x9+x38 <=1 
C321: x9+x39-y9_39 <=1 
C322: x9+x40-y9_40 <=1 
C323: x9+x42-y9_42 <=1 
C324: x9+x43 <=1 
C325: x9+x44 <=1 
C326: x9+x45-y9_45 <=1 
C327: x9+x46-y9_46 <=1 
C328: x9+x50 <=1 
C329: x9+x52 <=1 
C330: x9+x53-y9_53 <=1 
C331: x9+x54 <=1 
C332: x9+x57 <=1 
C333: x9+x62-y9_62 <=1 
C334: x10+x11 <=1 
C335: x10+x12-y10_12 <=1 
C336: x10+x13-y10_13 <=1 
C337: x10+x15 <=1 
C338: x10+x18-y10_18 <=1 
C339: x10+x20 <=1 
C340: x10+x22 <=1 
C341: x10+x24 <=1 
C342: x10+x25 <=1 
C343: x10+x26 <=1 
C344: x10+x27-y10_27 <=1 
C345: x10+x28-y10_28 <=1 
C346: x10+x29-y10_29 <=1 
C347: x10+x30 <=1 
C348: x10+x31-y10_31 <=1 
C349: x10+x32 <=1 
C350: x10+x33 <=1 
C351: x10+x34-y10_34 <=1 
C352: x10+x38 <=1 
C353: x10+x41-y10_41 <=1 
C354: x10+x42 <=1 
C355: x10+x43 <=1 
C356: x10+x44-y10_44 <=1 
C357: x10+x45-y10_45 <=1 
C358: x10+x46-y10_46 <=1 
C359: x10+x48 <=1 
C360: x10+x49 <=1 
C361: x10+x50-y10_50 <=1 
C362: x10+x51-y10_51 <=1 
C363: x10+x52 <=1 
C364: x10+x53-y10_53 <=1 
C365: x10+x55-y10_55 <=1 
C366: x10+x58 <=1 
C367: x10+x59-y10_59 <=1 
C368: x10+x61-y10_61 <=1 
C369: x10+x62 <=1 
C370: x11+x12-y11_12 <=1 
C371: x11+x14 <=1 
C372: x11+x17 <=1 
C373: x11+x19 <=1 
C374: x11+x20 <=1 
C375: x11+x22 <=1 
C376: x11+x24 <=1 
C377: x11+x25-y11_25 <=1 
C378: x11+x29 <=1 
C379: x11+x31 <=1 
C380: x11+x33-y11_33 <=1 
C381: x11+x35-y11_35 <=1 
C382: x11+x36-y11_36 <=1 
C383: x11+x37 <=1 
C384: x11+x38 <=1 
C385: x11+x41-y11_41 <=1 
C386: x11+x42-y11_42 <=1 
C387: x11+x43 <=1 
C388: x11+x44 <=1 
C389: x11+x45-y11_45 <=1 
C390: x11+x48-y11_48 <=1 
C391: x11+x50-y11_50 <=1 
C392: x11+x52-y11_52 <=1 
C393: x11+x53-y11_53 <=1 
C394: x11+x57 <=1 
C395: x11+x58-y11_58 <=1 
C396: x11+x59-y11_59 <=1 
C397: x11+x60-y11_60 <=1 
C398: x11+x61-y11_61 <=1 
C399: x12+x17 <=1 
C400: x12+x18-y12_18 <=1 
C401: x12+x19 <=1 
C402: x12+x20 <=1 
C403: x12+x22 <=1 
C404: x12+x24-y12_24 <=1 
C405: x12+x25-y12_25 <=1 
C406: x12+x26-y12_26 <=1 
C407: x12+x27 <=1 
C408: x12+x28 <=1 
C409: x12+x29 <=1 
C410: x12+x32 <=1 
C411: x12+x36 <=1 
C412: x12+x38 <=1 
C413: x12+x40 <=1 
C414: x12+x44-y12_44 <=1 
C415: x12+x45 <=1 
C416: x12+x46-y12_46 <=1 
C417: x12+x49-y12_49 <=1 
C418: x12+x51 <=1 
C419: x12+x54-y12_54 <=1 
C420: x12+x55 <=1 
C421: x12+x56 <=1 
C422: x12+x57-y12_57 <=1 
C423: x12+x59-y12_59 <=1 
C424: x12+x61 <=1 
C425: x13+x14 <=1 
C426: x13+x16-y13_16 <=1 
C427: x13+x17-y13_17 <=1 
C428: x13+x18 <=1 
C429: x13+x19 <=1 
C430: x13+x20-y13_20 <=1 
C431: x13+x21 <=1 
C432: x13+x22-y13_22 <=1 
C433: x13+x23 <=1 
C434: x13+x25 <=1 
C435: x13+x26 <=1 
C436: x13+x28 <=1 
C437: x13+x29-y13_29 <=1 
C438: x13+x31 <=1 
C439: x13+x33 <=1 
C440: x13+x34-y13_34 <=1 
C441: x13+x35-y13_35 <=1 
C442: x13+x36-y13_36 <=1 
C443: x13+x38-y13_38 <=1 
C444: x13+x40-y13_40 <=1 
C445: x13+x41-y13_41 <=1 
C446: x13+x42 <=1 
C447: x13+x43 <=1 
C448: x13+x44-y13_44 <=1 
C449: x13+x46-y13_46 <=1 
C450: x13+x47 <=1 
C451: x13+x48 <=1 
C452: x13+x49-y13_49 <=1 
C453: x13+x50 <=1 
C454: x13+x52-y13_52 <=1 
C455: x13+x54 <=1 
C456: x13+x55-y13_55 <=1 
C457: x13+x56 <=1 
C458: x13+x58-y13_58 <=1 
C459: x13+x59 <=1 
C460: x13+x62-y13_62 <=1 
C461: x14+x18 <=1 
C462: x14+x19-y14_19 <=1 
C463: x14+x21-y14_21 <=1 
C464: x14+x22 <=1 
C465: x14+x23 <=1 
C466: x14+x24-y14_24 <=1 
C467: x14+x26 <=1 
C468: x14+x27 <=1 
C469: x14+x28-y14_28 <=1 
C470: x14+x29 <=1 
C471: x14+x30 <=1 
C472: x14+x31-y14_31 <=1 
C473: x14+x32-y14_32 <=1 
C474: x14+x33 <=1 
C475: x14+x35-y14_35 <=1 
C476: x14+x37-y14_37 <=1 
C477: x14+x38-y14_38 <=1 
C478: x14+x39 <=1 
C479: x14+x40-y14_40 <=1 
C480: x14+x41 <=1 
C481: x14+x43 <=1 
C482: x14+x44 <=1 
C483: x14+x45 <=1 
C484: x14+x47-y14_47 <=1 
C485: x14+x48 <=1 
C486: x14+x51 <=1 
C487: x14+x52 <=1 
C488: x14+x53 <=1 
C489: x14+x54-y14_54 <=1 
C490: x14+x58-y14_58 <=1 
C491: x14+x59 <=1 
C492: x14+x61 <=1 
C493: x15+x16-y15_16 <=1 
C494: x15+x17-y15_17 <=1 
C495: x15+x18-y15_18 <=1 
C496: x15+x19-y15_19 <=1 
C497: x15+x20-y15_20 <=1 
C498: x15+x23 <=1 
C499: x15+x28-y15_28 <=1 
C500: x15+x29 <=1 
C501: x15+x31 <=1 
C502: x15+x33-y15_33 <=1 
C503: x15+x35-y15_35 <=1 
C504: x15+x36-y15_36 <=1 
C505: x15+x37-y15_37 <=1 
C506: x15+x39-y15_39 <=1 
C507: x15+x41 <=1 
C508: x15+x42 <=1 
C509: x15+x43-y15_43 <=1 
C510: x15+x48-y15_48 <=1 
C511: x15+x49-y15_49 <=1 
C512: x15+x50 <=1 
C513: x15+x51-y15_51 <=1 
C514: x15+x52-y15_52 <=1 
C515: x15+x53-y15_53 <=1 
C516: x15+x55-y15_55 <=1 
C517: x15+x56 <=1 
C518: x15+x57 <=1 
C519: x15+x61-y15_61 <=1 
C520: x15+x62-y15_62 <=1 
C521: x16+x17 <=1 
C522: x16+x18 <=1 
C523: x16+x21 <=1 
C524: x16+x22-y16_22 <=1 
C525: x16+x23-y16_23 <=1 
C526: x16+x24-y16_24 <=1 
C527: x16+x25 <=1 
C528: x16+x26-y16_26 <=1 
C529: x16+x27 <=1 
C530: x16+x30 <=1 
C531: x16+x32 <=1 
C532: x16+x33-y16_33 <=1 
C533: x16+x34-y16_34 <=1 
C534: x16+x39-y16_39 <=1 
C535: x16+x40 <=1 
C536: x16+x43 <=1 
C537: x16+x46 <=1 
C538: x16+x47 <=1 
C539: x16+x48 <=1 
C540: x16+x51 <=1 
C541: x16+x52 <=1 
C542: x16+x53 <=1 
C543: x16+x54-y16_54 <=1 
C544: x16+x57-y16_57 <=1 
C545: x16+x58-y16_58 <=1 
C546: x16+x60-y16_60 <=1 
C547: x16+x62 <=1 
C548: x17+x18-y17_18 <=1 
C549: x17+x20 <=1 
C550: x17+x21 <=1 
C551: x17+x22-y17_22 <=1 
C552: x17+x23-y17_23 <=1 
C553: x17+x24 <=1 
C554: x17+x25-y17_25 <=1 
C555: x17+x27-y17_27 <=1 
C556: x17+x28-y17_28 <=1 
C557: x17+x31-y17_31 <=1 
C558: x17+x32-y17_32 <=1 
C559: x17+x33 <=1 
C560: x17+x34 <=1 
C561: x17+x35 <=1 
C562: x17+x37-y17_37 <=1 
C563: x17+x38 <=1 
C564: x17+x40-y17_40 <=1 
C565: x17+x41-y17_41 <=1 
C566: x17+x42-y17_42 <=1 
C567: x17+x44 <=1 
C568: x17+x45 <=1 
C569: x17+x46-y17_46 <=1 
C570: x17+x48 <=1 
C571: x17+x49 <=1 
C572: x17+x50 <=1 
C573: x17+x51 <=1 
C574: x17+x52-y17_52 <=1 
C575: x17+x53 <=1 
C576: x17+x54-y17_54 <=1 
C577: x17+x55 <=1 
C578: x17+x57 <=1 
C579: x17+x59-y17_59 <=1 
C580: x17+x60 <=1 
C581: x17+x62 <=1 
C582: x18+x20 <=1 
C583: x18+x21 <=1 
C584: x18+x22-y18_22 <=1 
C585: x18+x23 <=1 
C586: x18+x25-y18_25 <=1 
C587: x18+x27 <=1 
C588: x18+x29-y18_29 <=1 
C589: x18+x31 <=1 
C590: x18+x34-y18_34 <=1 
C591: x18+x39-y18_39 <=1 
C592: x18+x46-y18_46 <=1 
C593: x18+x47-y18_47 <=1 
C594: x18+x49-y18_49 <=1 
C595: x18+x50-y18_50 <=1 
C596: x18+x51-y18_51 <=1 
C597: x18+x52-y18_52 <=1 
C598: x18+x53-y18_53 <=1 
C599: x18+x54 <=1 
C600: x18+x56 <=1 
C601: x18+x57 <=1 
C602: x18+x58-y18_58 <=1 
C603: x18+x60 <=1 
C604: x18+x61 <=1 
C605: x19+x23-y19_23 <=1 
C606: x19+x26-y19_26 <=1 
C607: x19+x29-y19_29 <=1 
C608: x19+x32-y19_32 <=1 
C609: x19+x33-y19_33 <=1 
C610: x19+x34-y19_34 <=1 
C611: x19+x36 <=1 
C612: x19+x37-y19_37 <=1 
C613: x19+x38-y19_38 <=1 
C614: x19+x39-y19_39 <=1 
C615: x19+x42-y19_42 <=1 
C616: x19+x45-y19_45 <=1 
C617: x19+x46-y19_46 <=1 
C618: x19+x47 <=1 
C619: x19+x48-y19_48 <=1 
C620: x19+x49 <=1 
C621: x19+x50 <=1 
C622: x19+x52-y19_52 <=1 
C623: x19+x53 <=1 
C624: x19+x54 <=1 
C625: x19+x57-y19_57 <=1 
C626: x19+x58-y19_58 <=1 
C627: x19+x60-y19_60 <=1 
C628: x19+x61 <=1 
C629: x19+x62-y19_62 <=1 
C630: x20+x21 <=1 
C631: x20+x22 <=1 
C632: x20+x25-y20_25 <=1 
C633: x20+x28 <=1 
C634: x20+x30-y20_30 <=1 
C635: x20+x31-y20_31 <=1 
C636: x20+x34 <=1 
C637: x20+x36 <=1 
C638: x20+x39 <=1 
C639: x20+x41-y20_41 <=1 
C640: x20+x42-y20_42 <=1 
C641: x20+x43 <=1 
C642: x20+x44 <=1 
C643: x20+x45 <=1 
C644: x20+x53-y20_53 <=1 
C645: x20+x57 <=1 
C646: x20+x59-y20_59 <=1 
C647: x20+x60 <=1 
C648: x20+x62-y20_62 <=1 
C649: x21+x23 <=1 
C650: x21+x24-y21_24 <=1 
C651: x21+x27 <=1 
C652: x21+x29-y21_29 <=1 
C653: x21+x30-y21_30 <=1 
C654: x21+x31 <=1 
C655: x21+x32 <=1 
C656: x21+x33-y21_33 <=1 
C657: x21+x34-y21_34 <=1 
C658: x21+x35 <=1 
C659: x21+x36 <=1 
C660: x21+x39-y21_39 <=1 
C661: x21+x44 <=1 
C662: x21+x46 <=1 
C663: x21+x47-y21_47 <=1 
C664: x21+x49 <=1 
C665: x21+x50-y21_50 <=1 
C666: x21+x51 <=1 
C667: x21+x52-y21_52 <=1 
C668: x21+x53-y21_53 <=1 
C669: x21+x55 <=1 
C670: x21+x57 <=1 
C671: x21+x59 <=1 
C672: x21+x60-y21_60 <=1 
C673: x21+x61-y21_61 <=1 
C674: x22+x23-y22_23 <=1 
C675: x22+x25-y22_25 <=1 
C676: x22+x26-y22_26 <=1 
C677: x22+x27 <=1 
C678: x22+x33 <=1 
C679: x22+x34 <=1 
C680: x22+x35 <=1 
C681: x22+x36 <=1 
C682: x22+x37-y22_37 <=1 
C683: x22+x38-y22_38 <=1 
C684: x22+x39-y22_39 <=1 
C685: x22+x41-y22_41 <=1 
C686: x22+x42 <=1 
C687: x22+x43-y22_43 <=1 
C688: x22+x44 <=1 
C689: x22+x45-y22_45 <=1 
C690: x22+x47-y22_47 <=1 
C691: x22+x49-y22_49 <=1 
C692: x22+x50-y22_50 <=1 
C693: x22+x51-y22_51 <=1 
C694: x22+x53-y22_53 <=1 
C695: x22+x56 <=1 
C696: x22+x57 <=1 
C697: x22+x58 <=1 
C698: x22+x59 <=1 
C699: x22+x60 <=1 
C700: x22+x61 <=1 
C701: x23+x24-y23_24 <=1 
C702: x23+x25 <=1 
C703: x23+x27-y23_27 <=1 
C704: x23+x28 <=1 
C705: x23+x29-y23_29 <=1 
C706: x23+x30 <=1 
C707: x23+x31 <=1 
C708: x23+x32 <=1 
C709: x23+x34-y23_34 <=1 
C710: x23+x36 <=1 
C711: x23+x37-y23_37 <=1 
C712: x23+x38 <=1 
C713: x23+x41 <=1 
C714: x23+x42-y23_42 <=1 
C715: x23+x44 <=1 
C716: x23+x45-y23_45 <=1 
C717: x23+x47 <=1 
C718: x23+x49 <=1 
C719: x23+x51 <=1 
C720: x23+x52-y23_52 <=1 
C721: x23+x53-y23_53 <=1 
C722: x23+x55-y23_55 <=1 
C723: x23+x56 <=1 
C724: x23+x57-y23_57 <=1 
C725: x23+x59 <=1 
C726: x23+x61-y23_61 <=1 
C727: x23+x62 <=1 
C728: x24+x25-y24_25 <=1 
C729: x24+x28 <=1 
C730: x24+x29-y24_29 <=1 
C731: x24+x30 <=1 
C732: x24+x31-y24_31 <=1 
C733: x24+x33-y24_33 <=1 
C734: x24+x34-y24_34 <=1 
C735: x24+x35-y24_35 <=1 
C736: x24+x36-y24_36 <=1 
C737: x24+x41-y24_41 <=1 
C738: x24+x42 <=1 
C739: x24+x43-y24_43 <=1 
C740: x24+x45-y24_45 <=1 
C741: x24+x46 <=1 
C742: x24+x47-y24_47 <=1 
C743: x24+x48-y24_48 <=1 
C744: x24+x50 <=1 
C745: x24+x51-y24_51 <=1 
C746: x24+x54 <=1 
C747: x24+x55-y24_55 <=1 
C748: x24+x57-y24_57 <=1 
C749: x24+x59-y24_59 <=1 
C750: x24+x61-y24_61 <=1 
C751: x24+x62 <=1 
C752: x25+x26-y25_26 <=1 
C753: x25+x27 <=1 
C754: x25+x28-y25_28 <=1 
C755: x25+x33-y25_33 <=1 
C756: x25+x35-y25_35 <=1 
C757: x25+x36-y25_36 <=1 
C758: x25+x38-y25_38 <=1 
C759: x25+x40 <=1 
C760: x25+x42-y25_42 <=1 
C761: x25+x43-y25_43 <=1 
C762: x25+x44-y25_44 <=1 
C763: x25+x46-y25_46 <=1 
C764: x25+x47-y25_47 <=1 
C765: x25+x48 <=1 
C766: x25+x49 <=1 
C767: x25+x50 <=1 
C768: x25+x52 <=1 
C769: x25+x53 <=1 
C770: x25+x57-y25_57 <=1 
C771: x25+x58 <=1 
C772: x25+x61 <=1 
C773: x26+x28-y26_28 <=1 
C774: x26+x29 <=1 
C775: x26+x30 <=1 
C776: x26+x31-y26_31 <=1 
C777: x26+x32 <=1 
C778: x26+x33 <=1 
C779: x26+x34 <=1 
C780: x26+x36-y26_36 <=1 
C781: x26+x37-y26_37 <=1 
C782: x26+x42 <=1 
C783: x26+x43-y26_43 <=1 
C784: x26+x45-y26_45 <=1 
C785: x26+x46-y26_46 <=1 
C786: x26+x48-y26_48 <=1 
C787: x26+x49 <=1 
C788: x26+x51-y26_51 <=1 
C789: x26+x54-y26_54 <=1 
C790: x26+x55-y26_55 <=1 
C791: x26+x57-y26_57 <=1 
C792: x26+x60-y26_60 <=1 
C793: x26+x61-y26_61 <=1 
C794: x26+x62-y26_62 <=1 
C795: x27+x31-y27_31 <=1 
C796: x27+x33 <=1 
C797: x27+x34-y27_34 <=1 
C798: x27+x35 <=1 
C799: x27+x39 <=1 
C800: x27+x41-y27_41 <=1 
C801: x27+x42 <=1 
C802: x27+x43-y27_43 <=1 
C803: x27+x44-y27_44 <=1 
C804: x27+x45 <=1 
C805: x27+x46 <=1 
C806: x27+x47-y27_47 <=1 
C807: x27+x51-y27_51 <=1 
C808: x27+x52 <=1 
C809: x27+x54-y27_54 <=1 
C810: x27+x57-y27_57 <=1 
C811: x27+x58 <=1 
C812: x27+x59 <=1 
C813: x28+x29-y28_29 <=1 
C814: x28+x30-y28_30 <=1 
C815: x28+x31-y28_31 <=1 
C816: x28+x32-y28_32 <=1 
C817: x28+x34 <=1 
C818: x28+x37 <=1 
C819: x28+x38 <=1 
C820: x28+x39-y28_39 <=1 
C821: x28+x40 <=1 
C822: x28+x43 <=1 
C823: x28+x44-y28_44 <=1 
C824: x28+x46 <=1 
C825: x28+x47-y28_47 <=1 
C826: x28+x48 <=1 
C827: x28+x49-y28_49 <=1 
C828: x28+x50-y28_50 <=1 
C829: x28+x53-y28_53 <=1 
C830: x28+x54 <=1 
C831: x28+x55 <=1 
C832: x28+x56-y28_56 <=1 
C833: x28+x58 <=1 
C834: x28+x60 <=1 
C835: x28+x61 <=1 
C836: x28+x62 <=1 
C837: x29+x33-y29_33 <=1 
C838: x29+x36-y29_36 <=1 
C839: x29+x37 <=1 
C840: x29+x39-y29_39 <=1 
C841: x29+x40 <=1 
C842: x29+x43-y29_43 <=1 
C843: x29+x44 <=1 
C844: x29+x45-y29_45 <=1 
C845: x29+x46 <=1 
C846: x29+x48-y29_48 <=1 
C847: x29+x49 <=1 
C848: x29+x50 <=1 
C849: x29+x51 <=1 
C850: x29+x52 <=1 
C851: x29+x53-y29_53 <=1 
C852: x29+x54-y29_54 <=1 
C853: x29+x55 <=1 
C854: x29+x57 <=1 
C855: x29+x58 <=1 
C856: x29+x59 <=1 
C857: x29+x60 <=1 
C858: x29+x61-y29_61 <=1 
C859: x29+x62-y29_62 <=1 
C860: x30+x33-y30_33 <=1 
C861: x30+x34-y30_34 <=1 
C862: x30+x35-y30_35 <=1 
C863: x30+x36 <=1 
C864: x30+x37-y30_37 <=1 
C865: x30+x38-y30_38 <=1 
C866: x30+x41-y30_41 <=1 
C867: x30+x43 <=1 
C868: x30+x44 <=1 
C869: x30+x45 <=1 
C870: x30+x46-y30_46 <=1 
C871: x30+x47-y30_47 <=1 
C872: x30+x49-y30_49 <=1 
C873: x30+x50 <=1 
C874: x30+x51 <=1 
C875: x30+x53 <=1 
C876: x30+x54-y30_54 <=1 
C877: x30+x55-y30_55 <=1 
C878: x30+x58-y30_58 <=1 
C879: x30+x61 <=1 
C880: x31+x32-y31_32 <=1 
C881: x31+x33-y31_33 <=1 
C882: x31+x34-y31_34 <=1 
C883: x31+x37 <=1 
C884: x31+x38 <=1 
C885: x31+x39-y31_39 <=1 
C886: x31+x40 <=1 
C887: x31+x41 <=1 
C888: x31+x42-y31_42 <=1 
C889: x31+x46-y31_46 <=1 
C890: x31+x47 <=1 
C891: x31+x48 <=1 
C892: x31+x50 <=1 
C893: x31+x51 <=1 
C894: x31+x53-y31_53 <=1 
C895: x31+x54-y31_54 <=1 
C896: x31+x55 <=1 
C897: x31+x56 <=1 
C898: x31+x57 <=1 
C899: x31+x58 <=1 
C900: x31+x62 <=1 
C901: x32+x33-y32_33 <=1 
C902: x32+x34-y32_34 <=1 
C903: x32+x35-y32_35 <=1 
C904: x32+x37 <=1 
C905: x32+x38 <=1 
C906: x32+x39-y32_39 <=1 
C907: x32+x41-y32_41 <=1 
C908: x32+x42-y32_42 <=1 
C909: x32+x43-y32_43 <=1 
C910: x32+x46 <=1 
C911: x32+x47 <=1 
C912: x32+x48-y32_48 <=1 
C913: x32+x49-y32_49 <=1 
C914: x32+x50 <=1 
C915: x32+x51-y32_51 <=1 
C916: x32+x52 <=1 
C917: x32+x54-y32_54 <=1 
C918: x32+x56-y32_56 <=1 
C919: x32+x58 <=1 
C920: x32+x59 <=1 
C921: x33+x35-y33_35 <=1 
C922: x33+x36-y33_36 <=1 
C923: x33+x38 <=1 
C924: x33+x39-y33_39 <=1 
C925: x33+x42-y33_42 <=1 
C926: x33+x43 <=1 
C927: x33+x45-y33_45 <=1 
C928: x33+x46-y33_46 <=1 
C929: x33+x47 <=1 
C930: x33+x48 <=1 
C931: x33+x49-y33_49 <=1 
C932: x33+x51-y33_51 <=1 
C933: x33+x52-y33_52 <=1 
C934: x33+x54 <=1 
C935: x33+x55 <=1 
C936: x33+x56 <=1 
C937: x33+x57 <=1 
C938: x33+x58-y33_58 <=1 
C939: x33+x59 <=1 
C940: x34+x37-y34_37 <=1 
C941: x34+x38 <=1 
C942: x34+x39-y34_39 <=1 
C943: x34+x40 <=1 
C944: x34+x41-y34_41 <=1 
C945: x34+x43-y34_43 <=1 
C946: x34+x45-y34_45 <=1 
C947: x34+x46 <=1 
C948: x34+x47-y34_47 <=1 
C949: x34+x48-y34_48 <=1 
C950: x34+x50-y34_50 <=1 
C951: x34+x51-y34_51 <=1 
C952: x34+x54-y34_54 <=1 
C953: x34+x55 <=1 
C954: x34+x60-y34_60 <=1 
C955: x34+x61 <=1 
C956: x35+x38 <=1 
C957: x35+x39-y35_39 <=1 
C958: x35+x40 <=1 
C959: x35+x41-y35_41 <=1 
C960: x35+x42-y35_42 <=1 
C961: x35+x43 <=1 
C962: x35+x45-y35_45 <=1 
C963: x35+x46 <=1 
C964: x35+x47-y35_47 <=1 
C965: x35+x48-y35_48 <=1 
C966: x35+x49-y35_49 <=1 
C967: x35+x52 <=1 
C968: x35+x53 <=1 
C969: x35+x54 <=1 
C970: x35+x55 <=1 
C971: x35+x56-y35_56 <=1 
C972: x35+x57 <=1 
C973: x35+x59-y35_59 <=1 
C974: x35+x61 <=1 
C975: x36+x37-y36_37 <=1 
C976: x36+x40 <=1 
C977: x36+x41 <=1 
C978: x36+x42-y36_42 <=1 
C979: x36+x43 <=1 
C980: x36+x44 <=1 
C981: x36+x45 <=1 
C982: x36+x46 <=1 
C983: x36+x47-y36_47 <=1 
C984: x36+x48 <=1 
C985: x36+x49 <=1 
C986: x36+x50 <=1 
C987: x36+x52 <=1 
C988: x36+x53 <=1 
C989: x36+x54 <=1 
C990: x36+x55-y36_55 <=1 
C991: x36+x58-y36_58 <=1 
C992: x36+x59 <=1 
C993: x36+x60 <=1 
C994: x36+x61-y36_61 <=1 
C995: x36+x62-y36_62 <=1 
C996: x37+x39-y37_39 <=1 
C997: x37+x40-y37_40 <=1 
C998: x37+x41-y37_41 <=1 
C999: x37+x42 <=1 
C1000: x37+x43-y37_43 <=1 
C1001: x37+x44-y37_44 <=1 
C1002: x37+x47-y37_47 <=1 
C1003: x37+x48 <=1 
C1004: x37+x49-y37_49 <=1 
C1005: x37+x50-y37_50 <=1 
C1006: x37+x51 <=1 
C1007: x37+x52 <=1 
C1008: x37+x54 <=1 
C1009: x37+x55 <=1 
C1010: x37+x56-y37_56 <=1 
C1011: x37+x57 <=1 
C1012: x37+x58 <=1 
C1013: x37+x59-y37_59 <=1 
C1014: x37+x60 <=1 
C1015: x38+x39 <=1 
C1016: x38+x40 <=1 
C1017: x38+x41 <=1 
C1018: x38+x42 <=1 
C1019: x38+x44-y38_44 <=1 
C1020: x38+x47-y38_47 <=1 
C1021: x38+x48 <=1 
C1022: x38+x50 <=1 
C1023: x38+x51 <=1 
C1024: x38+x52-y38_52 <=1 
C1025: x38+x55-y38_55 <=1 
C1026: x38+x58 <=1 
C1027: x38+x60 <=1 
C1028: x38+x61 <=1 
C1029: x39+x40 <=1 
C1030: x39+x42 <=1 
C1031: x39+x43 <=1 
C1032: x39+x46 <=1 
C1033: x39+x50-y39_50 <=1 
C1034: x39+x51-y39_51 <=1 
C1035: x39+x52-y39_52 <=1 
C1036: x39+x53-y39_53 <=1 
C1037: x39+x54-y39_54 <=1 
C1038: x39+x57 <=1 
C1039: x39+x58-y39_58 <=1 
C1040: x39+x59-y39_59 <=1 
C1041: x39+x61-y39_61 <=1 
C1042: x40+x41 <=1 
C1043: x40+x43 <=1 
C1044: x40+x44-y40_44 <=1 
C1045: x40+x46-y40_46 <=1 
C1046: x40+x48 <=1 
C1047: x40+x50-y40_50 <=1 
C1048: x40+x51-y40_51 <=1 
C1049: x40+x53 <=1 
C1050: x40+x54-y40_54 <=1 
C1051: x40+x58-y40_58 <=1 
C1052: x40+x62 <=1 
C1053: x41+x42 <=1 
C1054: x41+x43-y41_43 <=1 
C1055: x41+x44 <=1 
C1056: x41+x46 <=1 
C1057: x41+x47 <=1 
C1058: x41+x50 <=1 
C1059: x41+x51-y41_51 <=1 
C1060: x41+x52-y41_52 <=1 
C1061: x41+x53 <=1 
C1062: x41+x54 <=1 
C1063: x41+x55-y41_55 <=1 
C1064: x41+x56 <=1 
C1065: x41+x59-y41_59 <=1 
C1066: x41+x60 <=1 
C1067: x41+x61 <=1 
C1068: x42+x43 <=1 
C1069: x42+x45 <=1 
C1070: x42+x47 <=1 
C1071: x42+x49 <=1 
C1072: x42+x50-y42_50 <=1 
C1073: x42+x51-y42_51 <=1 
C1074: x42+x54-y42_54 <=1 
C1075: x42+x56 <=1 
C1076: x42+x57 <=1 
C1077: x42+x58 <=1 
C1078: x42+x59 <=1 
C1079: x42+x61 <=1 
C1080: x43+x45 <=1 
C1081: x43+x46 <=1 
C1082: x43+x47-y43_47 <=1 
C1083: x43+x48 <=1 
C1084: x43+x50 <=1 
C1085: x43+x51 <=1 
C1086: x43+x52-y43_52 <=1 
C1087: x43+x53 <=1 
C1088: x43+x56-y43_56 <=1 
C1089: x43+x58-y43_58 <=1 
C1090: x43+x60 <=1 
C1091: x43+x61-y43_61 <=1 
C1092: x43+x62 <=1 
C1093: x44+x45-y44_45 <=1 
C1094: x44+x46 <=1 
C1095: x44+x47 <=1 
C1096: x44+x52 <=1 
C1097: x44+x53 <=1 
C1098: x44+x57 <=1 
C1099: x44+x58 <=1 
C1100: x44+x62-y44_62 <=1 
C1101: x45+x46-y45_46 <=1 
C1102: x45+x49-y45_49 <=1 
C1103: x45+x50-y45_50 <=1 
C1104: x45+x52 <=1 
C1105: x45+x54-y45_54 <=1 
C1106: x45+x56-y45_56 <=1 
C1107: x45+x57 <=1 
C1108: x45+x59 <=1 
C1109: x45+x60-y45_60 <=1 
C1110: x45+x61 <=1 
C1111: x45+x62 <=1 
C1112: x46+x47 <=1 
C1113: x46+x48 <=1 
C1114: x46+x54-y46_54 <=1 
C1115: x46+x56 <=1 
C1116: x46+x58-y46_58 <=1 
C1117: x46+x59 <=1 
C1118: x46+x62 <=1 
C1119: x47+x51 <=1 
C1120: x47+x52-y47_52 <=1 
C1121: x47+x57-y47_57 <=1 
C1122: x47+x59-y47_59 <=1 
C1123: x47+x60-y47_60 <=1 
C1124: x47+x62 <=1 
C1125: x48+x49-y48_49 <=1 
C1126: x48+x52 <=1 
C1127: x48+x54-y48_54 <=1 
C1128: x48+x58 <=1 
C1129: x48+x59-y48_59 <=1 
C1130: x48+x60-y48_60 <=1 
C1131: x48+x61-y48_61 <=1 
C1132: x49+x51 <=1 
C1133: x49+x52-y49_52 <=1 
C1134: x49+x54 <=1 
C1135: x49+x55-y49_55 <=1 
C1136: x49+x59 <=1 
C1137: x49+x62-y49_62 <=1 
C1138: x50+x51 <=1 
C1139: x50+x52 <=1 
C1140: x50+x54 <=1 
C1141: x50+x56 <=1 
C1142: x50+x60 <=1 
C1143: x50+x61-y50_61 <=1 
C1144: x50+x62-y50_62 <=1 
C1145: x51+x52-y51_52 <=1 
C1146: x51+x53-y51_53 <=1 
C1147: x51+x55-y51_55 <=1 
C1148: x51+x56-y51_56 <=1 
C1149: x51+x57-y51_57 <=1 
C1150: x51+x59 <=1 
C1151: x51+x61-y51_61 <=1 
C1152: x51+x62-y51_62 <=1 
C1153: x52+x53-y52_53 <=1 
C1154: x52+x55 <=1 
C1155: x52+x56-y52_56 <=1 
C1156: x52+x60 <=1 
C1157: x52+x61-y52_61 <=1 
C1158: x52+x62 <=1 
C1159: x53+x54-y53_54 <=1 
C1160: x53+x55-y53_55 <=1 
C1161: x53+x56-y53_56 <=1 
C1162: x53+x57 <=1 
C1163: x53+x58 <=1 
C1164: x53+x59 <=1 
C1165: x53+x60 <=1 
C1166: x53+x62-y53_62 <=1 
C1167: x54+x55-y54_55 <=1 
C1168: x54+x57-y54_57 <=1 
C1169: x54+x60-y54_60 <=1 
C1170: x54+x61-y54_61 <=1 
C1171: x55+x59-y55_59 <=1 
C1172: x55+x62 <=1 
C1173: x56+x57-y56_57 <=1 
C1174: x56+x58-y56_58 <=1 
C1175: x56+x59 <=1 
C1176: x56+x62 <=1 
C1177: x57+x61 <=1 
C1178: x59+x60-y59_60 <=1 
C1179: x59+x61-y59_61 <=1 
C1180: x60+x61-y60_61 <=1 

binary
x0
x1
x2
x3
x4
x5
x6
x7
x8
x9
x10
x11
x12
x13
x14
x15
x16
x17
x18
x19
x20
x21
x22
x23
x24
x25
x26
x27
x28
x29
x30
x31
x32
x33
x34
x35
x36
x37
x38
x39
x40
x41
x42
x43
x44
x45
x46
x47
x48
x49
x50
x51
x52
x53
x54
x55
x56
x57
x58
x59
x60
x61
x62
