problem_generation/data/GISP/train/er_n=63_m=1180_p=0.60_SET2_setparam=100.00_alpha=0.50_125.sol
objective value:                                 1272
x3                                                  1 	(obj:100)
x5                                                  1 	(obj:100)
x9                                                  1 	(obj:100)
x19                                                 1 	(obj:100)
x24                                                 1 	(obj:100)
x25                                                 1 	(obj:100)
x26                                                 1 	(obj:100)
x39                                                 1 	(obj:100)
x45                                                 1 	(obj:100)
x51                                                 1 	(obj:100)
x55                                                 1 	(obj:100)
x56                                                 1 	(obj:100)
x60                                                 1 	(obj:100)
y3_24                                               1 	(obj:-1)
y5_55                                               1 	(obj:-1)
y3_5                                                1 	(obj:-1)
y24_55                                              1 	(obj:-1)
y9_39                                               1 	(obj:-1)
y24_45                                              1 	(obj:-1)
y19_60                                              1 	(obj:-1)
y39_51                                              1 	(obj:-1)
y5_39                                               1 	(obj:-1)
y19_45                                              1 	(obj:-1)
y24_25                                              1 	(obj:-1)
y19_26                                              1 	(obj:-1)
y45_56                                              1 	(obj:-1)
y26_51                                              1 	(obj:-1)
y3_26                                               1 	(obj:-1)
y25_26                                              1 	(obj:-1)
y51_56                                              1 	(obj:-1)
y9_45                                               1 	(obj:-1)
y51_55                                              1 	(obj:-1)
y5_51                                               1 	(obj:-1)
y24_51                                              1 	(obj:-1)
y5_19                                               1 	(obj:-1)
y26_60                                              1 	(obj:-1)
y19_39                                              1 	(obj:-1)
y45_60                                              1 	(obj:-1)
y26_55                                              1 	(obj:-1)
y26_45                                              1 	(obj:-1)
y3_56                                               1 	(obj:-1)
